Problem:    auctioneer_wdp
Rows:       6
Columns:    6 (5 integer, 5 binary)
Non-zeros:  26
Status:     INTEGER OPTIMAL
Objective:  fin_profit = 3 (MAXimum)

   No.   Row name        Activity     Lower bound   Upper bound
------ ------------    ------------- ------------- -------------
     1 fin_profit                  3                             
     2 not_neg[s1]                 0            -0               
     3 not_neg[s2]                 0            -0               
     4 not_neg[s3]                 2            -0               
     5 not_neg[s4]                 1            -0               
     6 profit_calc                 0            -0               

   No. Column name       Activity     Lower bound   Upper bound
------ ------------    ------------- ------------- -------------
     1 accepted[b1] *              1             0             1 
     2 accepted[b2] *              0             0             1 
     3 accepted[b3] *              1             0             1 
     4 accepted[b4] *              0             0             1 
     5 accepted[b5] *              1             0             1 
     6 worst_case_profit
                                   3                             

Integer feasibility conditions:

KKT.PE: max.abs.err = 0.00e+00 on row 0
        max.rel.err = 0.00e+00 on row 0
        High quality

KKT.PB: max.abs.err = 0.00e+00 on row 0
        max.rel.err = 0.00e+00 on row 0
        High quality

End of output
